QBPP_HJ+_35_025_20_3
35 87 1375
50 37 13 37 9 16 43 5 27 10 16 36 15 45 19 38 48 7 21 11 31 12 9 27 6 26 8 36 30 36 47 4 38 42 12
    0    0    0    0    0    0    0   59   37    0    0    0   71    0    0    0   80    0    0    0    0    0    0    0    0    0    0    0    0    0   39    0    0    0    0
    0    0    0    0    0    0    0    0    0    0    0    0   39    0   10    0    0   18    0   54    0   64    0    0    0    0    0    0    0    0    0    0   30    0    0
    0    0    0    0    0    0   40    0   99    0    0    0    0    0    0   58   60    0    0    0    0    0    0    0    0    0    0   13    0    0    4    0    0    0    0
    0    0    0    0    0    0    0    0    0    0    0    0    0    0   36    0   58    0   51    0   24    0   54    0    0    0    0    0    0    0    0    0    0    0    0
    0    0    0    0    0    0    0    4    0    0    0    0   82    0   65   65   60    0    0   18    0    0    0    0    0   20   61    0    0    0    0    0    0    0    0
    0    0    0    0    0    0    0    0    0    0    0    0    0    0   95   83    0    0    0    0    9    0    0    0  100    0    0    0    0    0    0    0    0    0    0
    0    0   40    0    0    0    0    0    0    0    0    0    0    0    0    7    3   99    0    0   73    0    0    0   60    0   17    0    0   52    0    0   22    0    0
   59    0    0    0    4    0    0    0    0   18    0   38    0   21    0    0    0    0    0    0    0   18    0    0   60    0    0   83    0    0    0    0    0    0    0
   37    0   99    0    0    0    0    0    0    0    0    0   42    0    0    0    0    0   30    0    0    0    0    0    0    0    0    0    0    0    0    0    0   28    0
    0    0    0    0    0    0    0   18    0    0    0    0    0    0    0    0    0    0    0    0    0    0    0    0    0    0   72   61    0    0   15    0    0    0    0
    0    0    0    0    0    0    0    0    0    0    0   50   33    0    0    0    0    0    0    0   48    0    0    0    0    0    0    8    0    0   73    4    0    0    0
    0    0    0    0    0    0    0   38    0    0   50    0    0    0    0   54    0    0    0    0    0    0    0    0    0    0    0    0    0   19    0    0    0   64   36
   71   39    0    0   82    0    0    0   42    0   33    0    0    0    0    0   21    0   13    0    0   49    0   22    0    0    0    0    0    0    0    0   47    0    0
    0    0    0    0    0    0    0   21    0    0    0    0    0    0    0    0    0    0    0    0    0    0    0   96    0    0    5    0    0    0    0    2    0    0    0
    0   10    0   36   65   95    0    0    0    0    0    0    0    0    0    0   48    0    0   74    0    0    0   14    0    0    0    0    0    0   92    0    0    0    0
    0    0   58    0   65   83    7    0    0    0    0   54    0    0    0    0   27    0    0    0    0   37    0    0   17   88    0    0   47    0   37    7    0   79    0
   80    0   60   58   60    0    3    0    0    0    0    0   21    0   48   27    0    0    0    0    0    0   74    0    0    0    0    0   74    0    0   14    0    0    0
    0   18    0    0    0    0   99    0    0    0    0    0    0    0    0    0    0    0    0    0    0    0    0    0    0    0   34   97    0    0    0    0    0    0    0
    0    0    0   51    0    0    0    0   30    0    0    0   13    0    0    0    0    0    0    0    0   38    0   86    0    0    0    0    0   89    0    0    0    0    0
    0   54    0    0   18    0    0    0    0    0    0    0    0    0   74    0    0    0    0    0   19    0    0    0   22   19   17    0    0    0    6   87    0    0    0
    0    0    0   24    0    9   73    0    0    0   48    0    0    0    0    0    0    0    0   19    0    0    0   39    0   70    9   82   40    0   29    0    0    0    0
    0   64    0    0    0    0    0   18    0    0    0    0   49    0    0   37    0    0   38    0    0    0    0    0    0   96    0    0    0    0   77    0    0    0    0
    0    0    0   54    0    0    0    0    0    0    0    0    0    0    0    0   74    0    0    0    0    0    0    0    0    0    0    0    0    0    0    0    0    0   91
    0    0    0    0    0    0    0    0    0    0    0    0   22   96   14    0    0    0   86    0   39    0    0    0    0    0    0    0    0    0    0    0    0   75   38
    0    0    0    0    0  100   60   60    0    0    0    0    0    0    0   17    0    0    0   22    0    0    0    0    0    0   69    0    0   13    0    0    0    0    0
    0    0    0    0   20    0    0    0    0    0    0    0    0    0    0   88    0    0    0   19   70   96    0    0    0    0    0    0    0    0    0   71    0    0    0
    0    0    0    0   61    0   17    0    0   72    0    0    0    5    0    0    0   34    0   17    9    0    0    0   69    0    0    0    0    0    0    0    0   39    0
    0    0   13    0    0    0    0   83    0   61    8    0    0    0    0    0    0   97    0    0   82    0    0    0    0    0    0    0    0   65   19    0    0    0    0
    0    0    0    0    0    0    0    0    0    0    0    0    0    0    0   47   74    0    0    0   40    0    0    0    0    0    0    0    0    0   86    0    0    0    0
    0    0    0    0    0    0   52    0    0    0    0   19    0    0    0    0    0    0   89    0    0    0    0    0   13    0    0   65    0    0    0    0    0    0    0
   39    0    4    0    0    0    0    0    0   15   73    0    0    0   92   37    0    0    0    6   29   77    0    0    0    0    0   19   86    0    0    0    0    0    0
    0    0    0    0    0    0    0    0    0    0    4    0    0    2    0    7   14    0    0   87    0    0    0    0    0   71    0    0    0    0    0    0    0    0    0
    0   30    0    0    0    0   22    0    0    0    0    0   47    0    0    0    0    0    0    0    0    0    0    0    0    0    0    0    0    0    0    0    0    0   39
    0    0    0    0    0    0    0    0   28    0    0   64    0    0    0   79    0    0    0    0    0    0    0   75    0    0   39    0    0    0    0    0    0    0    0
    0    0    0    0    0    0    0    0    0    0    0   36    0    0    0    0    0    0    0    0    0    0   91   38    0    0    0    0    0    0    0    0   39    0    0
